(declare-fun ExpandObjSwitcher () Real)
(declare-fun Constructed_Argument_t () String)
(declare-fun Constructed_Argument_Array_Length () Int)
(declare-fun Constructed_Argument_2_t () String)
(assert (= ExpandObjSwitcher 3.0))
(assert (= Constructed_Argument_t "array_string"))
(assert (>= Constructed_Argument_Array_Length 0))
(assert (not (= Constructed_Argument_2_t "string")))
(assert (not (= Constructed_Argument_2_t "number")))
(assert (not (= Constructed_Argument_2_t "boolean")))
(assert (= Constructed_Argument_2_t "object"))
(check-sat)
